p cnf 250 2624
1 2 3 4 5 0
6 7 8 9 10 0
11 12 13 14 15 0
16 17 18 19 20 0
21 22 23 24 25 0
26 27 28 29 30 0
31 32 33 34 35 0
36 37 38 39 40 0
41 42 43 44 45 0
46 47 48 49 50 0
51 52 53 54 55 0
56 57 58 59 60 0
61 62 63 64 65 0
66 67 68 69 70 0
71 72 73 74 75 0
76 77 78 79 80 0
81 82 83 84 85 0
86 87 88 89 90 0
91 92 93 94 95 0
96 97 98 99 100 0
101 102 103 104 105 0
106 107 108 109 110 0
111 112 113 114 115 0
116 117 118 119 120 0
121 122 123 124 125 0
126 127 128 129 130 0
131 132 133 134 135 0
136 137 138 139 140 0
141 142 143 144 145 0
146 147 148 149 150 0
151 152 153 154 155 0
156 157 158 159 160 0
161 162 163 164 165 0
166 167 168 169 170 0
171 172 173 174 175 0
176 177 178 179 180 0
181 182 183 184 185 0
186 187 188 189 190 0
191 192 193 194 195 0
196 197 198 199 200 0
201 202 203 204 205 0
206 207 208 209 210 0
211 212 213 214 215 0
216 217 218 219 220 0
221 222 223 224 225 0
226 227 228 229 230 0
231 232 233 234 235 0
236 237 238 239 240 0
241 242 243 244 245 0
246 247 248 249 250 0
-1 -2 0
-1 -3 0
-1 -4 0
-1 -5 0
-2 -3 0
-2 -4 0
-2 -5 0
-3 -4 0
-3 -5 0
-4 -5 0
-6 -7 0
-6 -8 0
-6 -9 0
-6 -10 0
-7 -8 0
-7 -9 0
-7 -10 0
-8 -9 0
-8 -10 0
-9 -10 0
-11 -12 0
-11 -13 0
-11 -14 0
-11 -15 0
-12 -13 0
-12 -14 0
-12 -15 0
-13 -14 0
-13 -15 0
-14 -15 0
-16 -17 0
-16 -18 0
-16 -19 0
-16 -20 0
-17 -18 0
-17 -19 0
-17 -20 0
-18 -19 0
-18 -20 0
-19 -20 0
-21 -22 0
-21 -23 0
-21 -24 0
-21 -25 0
-22 -23 0
-22 -24 0
-22 -25 0
-23 -24 0
-23 -25 0
-24 -25 0
-26 -27 0
-26 -28 0
-26 -29 0
-26 -30 0
-27 -28 0
-27 -29 0
-27 -30 0
-28 -29 0
-28 -30 0
-29 -30 0
-31 -32 0
-31 -33 0
-31 -34 0
-31 -35 0
-32 -33 0
-32 -34 0
-32 -35 0
-33 -34 0
-33 -35 0
-34 -35 0
-36 -37 0
-36 -38 0
-36 -39 0
-36 -40 0
-37 -38 0
-37 -39 0
-37 -40 0
-38 -39 0
-38 -40 0
-39 -40 0
-41 -42 0
-41 -43 0
-41 -44 0
-41 -45 0
-42 -43 0
-42 -44 0
-42 -45 0
-43 -44 0
-43 -45 0
-44 -45 0
-46 -47 0
-46 -48 0
-46 -49 0
-46 -50 0
-47 -48 0
-47 -49 0
-47 -50 0
-48 -49 0
-48 -50 0
-49 -50 0
-51 -52 0
-51 -53 0
-51 -54 0
-51 -55 0
-52 -53 0
-52 -54 0
-52 -55 0
-53 -54 0
-53 -55 0
-54 -55 0
-56 -57 0
-56 -58 0
-56 -59 0
-56 -60 0
-57 -58 0
-57 -59 0
-57 -60 0
-58 -59 0
-58 -60 0
-59 -60 0
-61 -62 0
-61 -63 0
-61 -64 0
-61 -65 0
-62 -63 0
-62 -64 0
-62 -65 0
-63 -64 0
-63 -65 0
-64 -65 0
-66 -67 0
-66 -68 0
-66 -69 0
-66 -70 0
-67 -68 0
-67 -69 0
-67 -70 0
-68 -69 0
-68 -70 0
-69 -70 0
-71 -72 0
-71 -73 0
-71 -74 0
-71 -75 0
-72 -73 0
-72 -74 0
-72 -75 0
-73 -74 0
-73 -75 0
-74 -75 0
-76 -77 0
-76 -78 0
-76 -79 0
-76 -80 0
-77 -78 0
-77 -79 0
-77 -80 0
-78 -79 0
-78 -80 0
-79 -80 0
-81 -82 0
-81 -83 0
-81 -84 0
-81 -85 0
-82 -83 0
-82 -84 0
-82 -85 0
-83 -84 0
-83 -85 0
-84 -85 0
-86 -87 0
-86 -88 0
-86 -89 0
-86 -90 0
-87 -88 0
-87 -89 0
-87 -90 0
-88 -89 0
-88 -90 0
-89 -90 0
-91 -92 0
-91 -93 0
-91 -94 0
-91 -95 0
-92 -93 0
-92 -94 0
-92 -95 0
-93 -94 0
-93 -95 0
-94 -95 0
-96 -97 0
-96 -98 0
-96 -99 0
-96 -100 0
-97 -98 0
-97 -99 0
-97 -100 0
-98 -99 0
-98 -100 0
-99 -100 0
-101 -102 0
-101 -103 0
-101 -104 0
-101 -105 0
-102 -103 0
-102 -104 0
-102 -105 0
-103 -104 0
-103 -105 0
-104 -105 0
-106 -107 0
-106 -108 0
-106 -109 0
-106 -110 0
-107 -108 0
-107 -109 0
-107 -110 0
-108 -109 0
-108 -110 0
-109 -110 0
-111 -112 0
-111 -113 0
-111 -114 0
-111 -115 0
-112 -113 0
-112 -114 0
-112 -115 0
-113 -114 0
-113 -115 0
-114 -115 0
-116 -117 0
-116 -118 0
-116 -119 0
-116 -120 0
-117 -118 0
-117 -119 0
-117 -120 0
-118 -119 0
-118 -120 0
-119 -120 0
-121 -122 0
-121 -123 0
-121 -124 0
-121 -125 0
-122 -123 0
-122 -124 0
-122 -125 0
-123 -124 0
-123 -125 0
-124 -125 0
-126 -127 0
-126 -128 0
-126 -129 0
-126 -130 0
-127 -128 0
-127 -129 0
-127 -130 0
-128 -129 0
-128 -130 0
-129 -130 0
-131 -132 0
-131 -133 0
-131 -134 0
-131 -135 0
-132 -133 0
-132 -134 0
-132 -135 0
-133 -134 0
-133 -135 0
-134 -135 0
-136 -137 0
-136 -138 0
-136 -139 0
-136 -140 0
-137 -138 0
-137 -139 0
-137 -140 0
-138 -139 0
-138 -140 0
-139 -140 0
-141 -142 0
-141 -143 0
-141 -144 0
-141 -145 0
-142 -143 0
-142 -144 0
-142 -145 0
-143 -144 0
-143 -145 0
-144 -145 0
-146 -147 0
-146 -148 0
-146 -149 0
-146 -150 0
-147 -148 0
-147 -149 0
-147 -150 0
-148 -149 0
-148 -150 0
-149 -150 0
-151 -152 0
-151 -153 0
-151 -154 0
-151 -155 0
-152 -153 0
-152 -154 0
-152 -155 0
-153 -154 0
-153 -155 0
-154 -155 0
-156 -157 0
-156 -158 0
-156 -159 0
-156 -160 0
-157 -158 0
-157 -159 0
-157 -160 0
-158 -159 0
-158 -160 0
-159 -160 0
-161 -162 0
-161 -163 0
-161 -164 0
-161 -165 0
-162 -163 0
-162 -164 0
-162 -165 0
-163 -164 0
-163 -165 0
-164 -165 0
-166 -167 0
-166 -168 0
-166 -169 0
-166 -170 0
-167 -168 0
-167 -169 0
-167 -170 0
-168 -169 0
-168 -170 0
-169 -170 0
-171 -172 0
-171 -173 0
-171 -174 0
-171 -175 0
-172 -173 0
-172 -174 0
-172 -175 0
-173 -174 0
-173 -175 0
-174 -175 0
-176 -177 0
-176 -178 0
-176 -179 0
-176 -180 0
-177 -178 0
-177 -179 0
-177 -180 0
-178 -179 0
-178 -180 0
-179 -180 0
-181 -182 0
-181 -183 0
-181 -184 0
-181 -185 0
-182 -183 0
-182 -184 0
-182 -185 0
-183 -184 0
-183 -185 0
-184 -185 0
-186 -187 0
-186 -188 0
-186 -189 0
-186 -190 0
-187 -188 0
-187 -189 0
-187 -190 0
-188 -189 0
-188 -190 0
-189 -190 0
-191 -192 0
-191 -193 0
-191 -194 0
-191 -195 0
-192 -193 0
-192 -194 0
-192 -195 0
-193 -194 0
-193 -195 0
-194 -195 0
-196 -197 0
-196 -198 0
-196 -199 0
-196 -200 0
-197 -198 0
-197 -199 0
-197 -200 0
-198 -199 0
-198 -200 0
-199 -200 0
-201 -202 0
-201 -203 0
-201 -204 0
-201 -205 0
-202 -203 0
-202 -204 0
-202 -205 0
-203 -204 0
-203 -205 0
-204 -205 0
-206 -207 0
-206 -208 0
-206 -209 0
-206 -210 0
-207 -208 0
-207 -209 0
-207 -210 0
-208 -209 0
-208 -210 0
-209 -210 0
-211 -212 0
-211 -213 0
-211 -214 0
-211 -215 0
-212 -213 0
-212 -214 0
-212 -215 0
-213 -214 0
-213 -215 0
-214 -215 0
-216 -217 0
-216 -218 0
-216 -219 0
-216 -220 0
-217 -218 0
-217 -219 0
-217 -220 0
-218 -219 0
-218 -220 0
-219 -220 0
-221 -222 0
-221 -223 0
-221 -224 0
-221 -225 0
-222 -223 0
-222 -224 0
-222 -225 0
-223 -224 0
-223 -225 0
-224 -225 0
-226 -227 0
-226 -228 0
-226 -229 0
-226 -230 0
-227 -228 0
-227 -229 0
-227 -230 0
-228 -229 0
-228 -230 0
-229 -230 0
-231 -232 0
-231 -233 0
-231 -234 0
-231 -235 0
-232 -233 0
-232 -234 0
-232 -235 0
-233 -234 0
-233 -235 0
-234 -235 0
-236 -237 0
-236 -238 0
-236 -239 0
-236 -240 0
-237 -238 0
-237 -239 0
-237 -240 0
-238 -239 0
-238 -240 0
-239 -240 0
-241 -242 0
-241 -243 0
-241 -244 0
-241 -245 0
-242 -243 0
-242 -244 0
-242 -245 0
-243 -244 0
-243 -245 0
-244 -245 0
-246 -247 0
-246 -248 0
-246 -249 0
-246 -250 0
-247 -248 0
-247 -249 0
-247 -250 0
-248 -249 0
-248 -250 0
-249 -250 0
-1 -30 0
-3 -28 0
-4 -29 0
-1 -26 0
-2 -30 0
-4 -30 0
-4 -28 0
-2 -27 0
-3 -26 0
-2 -29 0
-4 -26 0
-5 -30 0
-2 -28 0
-1 -29 0
-3 -30 0
-2 -26 0
-3 -29 0
-1 -154 0
-1 -153 0
-3 -154 0
-5 -155 0
-4 -154 0
-4 -153 0
-4 -151 0
-5 -152 0
-5 -151 0
-2 -155 0
-2 -152 0
-5 -153 0
-1 -152 0
-3 -155 0
-2 -153 0
-3 -151 0
-4 -155 0
-2 -167 0
-1 -166 0
-3 -168 0
-4 -170 0
-4 -168 0
-3 -170 0
-2 -169 0
-4 -166 0
-5 -167 0
-2 -166 0
-4 -167 0
-2 -168 0
-3 -167 0
-1 -170 0
-4 -169 0
-1 -169 0
-1 -167 0
-1 -182 0
-1 -181 0
-5 -182 0
-3 -183 0
-3 -184 0
-4 -181 0
-2 -184 0
-3 -185 0
-1 -183 0
-3 -181 0
-2 -183 0
-4 -185 0
-2 -185 0
-1 -185 0
-4 -183 0
-5 -184 0
-5 -181 0
-2 -196 0
-3 -197 0
-4 -196 0
-2 -199 0
-4 -199 0
-3 -199 0
-2 -197 0
-1 -199 0
-4 -200 0
-2 -200 0
-3 -198 0
-4 -198 0
-5 -197 0
-1 -198 0
-4 -197 0
-5 -200 0
-1 -196 0
-7 -221 0
-10 -224 0
-6 -224 0
-9 -225 0
-9 -221 0
-8 -223 0
-6 -221 0
-9 -223 0
-8 -224 0
-6 -223 0
-6 -222 0
-8 -221 0
-7 -224 0
-10 -225 0
-9 -224 0
-10 -221 0
-7 -222 0
-14 -26 0
-12 -28 0
-15 -27 0
-13 -26 0
-11 -26 0
-13 -28 0
-13 -30 0
-13 -29 0
-14 -30 0
-11 -28 0
-11 -27 0
-12 -30 0
-13 -27 0
-14 -27 0
-12 -27 0
-15 -29 0
-12 -29 0
-12 -87 0
-12 -88 0
-14 -90 0
-15 -86 0
-15 -90 0
-13 -90 0
-15 -88 0
-13 -86 0
-13 -87 0
-14 -89 0
-11 -88 0
-12 -90 0
-14 -87 0
-11 -87 0
-13 -88 0
-14 -86 0
-11 -86 0
-15 -109 0
-15 -106 0
-13 -109 0
-13 -106 0
-14 -107 0
-14 -110 0
-12 -107 0
-12 -109 0
-13 -107 0
-11 -106 0
-11 -109 0
-13 -108 0
-11 -107 0
-15 -108 0
-11 -110 0
-15 -107 0
-12 -110 0
-13 -146 0
-12 -146 0
-11 -146 0
-15 -146 0
-14 -147 0
-15 -149 0
-11 -149 0
-11 -148 0
-14 -149 0
-15 -147 0
-14 -146 0
-11 -150 0
-12 -147 0
-13 -149 0
-14 -150 0
-15 -150 0
-12 -149 0
-13 -153 0
-15 -153 0
-13 -151 0
-13 -154 0
-11 -155 0
-15 -154 0
-13 -152 0
-14 -151 0
-11 -152 0
-14 -155 0
-14 -152 0
-11 -154 0
-11 -151 0
-13 -155 0
-12 -155 0
-15 -151 0
-12 -152 0
-11 -174 0
-14 -171 0
-12 -175 0
-13 -173 0
-12 -172 0
-14 -173 0
-12 -173 0
-15 -174 0
-11 -171 0
-15 -175 0
-14 -172 0
-13 -175 0
-15 -171 0
-13 -174 0
-15 -172 0
-13 -172 0
-12 -174 0
-14 -179 0
-13 -176 0
-14 -178 0
-13 -177 0
-14 -180 0
-14 -177 0
-11 -177 0
-15 -178 0
-13 -178 0
-15 -177 0
-15 -176 0
-14 -176 0
-12 -176 0
-11 -178 0
-12 -178 0
-13 -179 0
-13 -180 0
-19 -81 0
-18 -83 0
-19 -83 0
-17 -85 0
-16 -82 0
-19 -84 0
-17 -84 0
-20 -82 0
-19 -85 0
-19 -82 0
-18 -82 0
-20 -84 0
-16 -84 0
-20 -83 0
-18 -84 0
-20 -85 0
-20 -81 0
-19 -176 0
-18 -177 0
-16 -179 0
-20 -180 0
-18 -176 0
-17 -180 0
-16 -176 0
-20 -179 0
-19 -177 0
-16 -178 0
-20 -178 0
-18 -178 0
-18 -180 0
-16 -180 0
-16 -177 0
-19 -178 0
-19 -180 0
-20 -211 0
-19 -215 0
-20 -214 0
-19 -214 0
-20 -215 0
-20 -212 0
-20 -213 0
-17 -212 0
-17 -213 0
-18 -214 0
-18 -215 0
-17 -214 0
-19 -213 0
-16 -214 0
-16 -213 0
-17 -211 0
-19 -211 0
-18 -245 0
-18 -244 0
-19 -245 0
-16 -243 0
-18 -242 0
-16 -245 0
-16 -242 0
-19 -244 0
-19 -242 0
-17 -242 0
-16 -244 0
-20 -243 0
-20 -241 0
-18 -243 0
-19 -243 0
-19 -241 0
-17 -241 0
-25 -56 0
-24 -60 0
-25 -59 0
-21 -56 0
-21 -59 0
-23 -59 0
-22 -60 0
-22 -58 0
-23 -57 0
-24 -58 0
-24 -56 0
-23 -58 0
-22 -57 0
-23 -60 0
-25 -60 0
-21 -60 0
-24 -57 0
-24 -83 0
-24 -84 0
-24 -85 0
-25 -82 0
-21 -85 0
-21 -84 0
-23 -85 0
-21 -81 0
-25 -81 0
-23 -83 0
-24 -82 0
-23 -82 0
-22 -83 0
-22 -84 0
-21 -83 0
-25 -84 0
-22 -81 0
-23 -131 0
-21 -135 0
-22 -133 0
-23 -134 0
-22 -134 0
-21 -131 0
-21 -133 0
-25 -132 0
-23 -133 0
-23 -135 0
-21 -132 0
-22 -132 0
-25 -131 0
-25 -133 0
-22 -131 0
-24 -133 0
-25 -135 0
-23 -160 0
-21 -160 0
-23 -156 0
-22 -159 0
-22 -156 0
-21 -157 0
-22 -157 0
-25 -158 0
-21 -156 0
-24 -156 0
-25 -157 0
-25 -160 0
-21 -159 0
-24 -158 0
-24 -159 0
-25 -159 0
-21 -158 0
-25 -180 0
-24 -178 0
-25 -179 0
-24 -177 0
-25 -177 0
-23 -176 0
-23 -179 0
-23 -180 0
-22 -179 0
-21 -178 0
-22 -177 0
-23 -178 0
-22 -180 0
-21 -177 0
-22 -176 0
-24 -176 0
-23 -177 0
-23 -196 0
-22 -197 0
-23 -198 0
-24 -200 0
-21 -199 0
-25 -199 0
-22 -200 0
-24 -196 0
-25 -198 0
-21 -197 0
-25 -197 0
-22 -199 0
-25 -196 0
-24 -198 0
-22 -198 0
-23 -199 0
-21 -196 0
-30 -106 0
-26 -110 0
-27 -108 0
-30 -110 0
-29 -106 0
-27 -109 0
-30 -108 0
-28 -109 0
-28 -106 0
-26 -109 0
-30 -109 0
-29 -110 0
-30 -107 0
-27 -110 0
-26 -106 0
-29 -108 0
-28 -107 0
-27 -212 0
-29 -215 0
-27 -213 0
-30 -211 0
-26 -211 0
-28 -213 0
-28 -211 0
-26 -213 0
-29 -211 0
-28 -214 0
-30 -212 0
-28 -215 0
-29 -214 0
-30 -214 0
-27 -214 0
-27 -215 0
-26 -212 0
-31 -75 0
-32 -71 0
-33 -71 0
-35 -71 0
-32 -74 0
-34 -74 0
-34 -71 0
-33 -74 0
-31 -74 0
-33 -75 0
-34 -75 0
-35 -72 0
-32 -73 0
-35 -75 0
-34 -73 0
-32 -75 0
-35 -74 0
-31 -170 0
-35 -167 0
-35 -168 0
-35 -170 0
-34 -167 0
-32 -168 0
-34 -166 0
-35 -169 0
-33 -166 0
-34 -169 0
-31 -168 0
-32 -169 0
-31 -169 0
-31 -166 0
-31 -167 0
-32 -170 0
-33 -168 0
-31 -172 0
-32 -174 0
-34 -172 0
-34 -175 0
-32 -173 0
-33 -175 0
-35 -173 0
-33 -172 0
-34 -171 0
-33 -174 0
-32 -172 0
-35 -175 0
-31 -175 0
-33 -171 0
-35 -171 0
-34 -173 0
-35 -174 0
-38 -52 0
-37 -53 0
-40 -52 0
-37 -55 0
-37 -54 0
-36 -51 0
-38 -55 0
-39 -52 0
-36 -52 0
-36 -54 0
-38 -53 0
-36 -53 0
-37 -52 0
-40 -51 0
-40 -53 0
-39 -54 0
-40 -54 0
-40 -141 0
-40 -142 0
-38 -145 0
-38 -143 0
-36 -143 0
-36 -141 0
-38 -142 0
-40 -143 0
-37 -144 0
-39 -143 0
-36 -145 0
-39 -145 0
-38 -141 0
-37 -141 0
-39 -142 0
-37 -145 0
-38 -144 0
-37 -167 0
-38 -167 0
-40 -169 0
-38 -166 0
-37 -169 0
-40 -170 0
-39 -168 0
-39 -166 0
-38 -168 0
-36 -168 0
-39 -169 0
-37 -166 0
-37 -170 0
-36 -166 0
-40 -167 0
-36 -169 0
-38 -170 0
-36 -205 0
-39 -203 0
-40 -202 0
-38 -204 0
-39 -205 0
-37 -203 0
-39 -201 0
-38 -203 0
-40 -205 0
-36 -201 0
-39 -202 0
-36 -203 0
-40 -201 0
-40 -204 0
-40 -203 0
-37 -205 0
-39 -204 0
-39 -217 0
-36 -219 0
-38 -220 0
-36 -220 0
-37 -216 0
-39 -219 0
-36 -217 0
-40 -217 0
-40 -218 0
-39 -218 0
-38 -217 0
-36 -218 0
-37 -218 0
-40 -216 0
-37 -220 0
-37 -219 0
-39 -220 0
-45 -115 0
-44 -114 0
-41 -113 0
-45 -114 0
-44 -115 0
-43 -112 0
-42 -111 0
-43 -115 0
-41 -111 0
-41 -112 0
-41 -115 0
-42 -113 0
-41 -114 0
-45 -113 0
-44 -113 0
-43 -113 0
-45 -111 0
-45 -179 0
-44 -178 0
-41 -176 0
-44 -180 0
-41 -180 0
-43 -177 0
-43 -178 0
-41 -179 0
-41 -177 0
-45 -176 0
-41 -178 0
-42 -180 0
-45 -178 0
-44 -179 0
-42 -178 0
-42 -177 0
-43 -176 0
-43 -211 0
-44 -215 0
-43 -215 0
-42 -215 0
-41 -215 0
-42 -212 0
-41 -212 0
-44 -214 0
-45 -215 0
-45 -214 0
-41 -213 0
-42 -214 0
-45 -212 0
-42 -213 0
-43 -213 0
-44 -212 0
-41 -211 0
-42 -232 0
-43 -233 0
-41 -231 0
-42 -233 0
-43 -234 0
-43 -232 0
-44 -235 0
-45 -235 0
-41 -232 0
-44 -232 0
-41 -234 0
-44 -233 0
-45 -231 0
-45 -233 0
-44 -234 0
-44 -231 0
-41 -235 0
-45 -246 0
-45 -247 0
-42 -246 0
-43 -249 0
-44 -248 0
-43 -250 0
-41 -249 0
-44 -246 0
-45 -250 0
-44 -249 0
-43 -246 0
-44 -247 0
-41 -246 0
-41 -247 0
-41 -248 0
-44 -250 0
-42 -249 0
-50 -90 0
-47 -86 0
-49 -88 0
-46 -89 0
-50 -86 0
-47 -89 0
-50 -88 0
-47 -87 0
-48 -88 0
-48 -87 0
-50 -87 0
-46 -88 0
-46 -87 0
-46 -90 0
-48 -89 0
-48 -86 0
-46 -86 0
-48 -122 0
-47 -123 0
-48 -125 0
-50 -124 0
-47 -122 0
-50 -121 0
-50 -125 0
-46 -123 0
-46 -122 0
-48 -121 0
-46 -121 0
-50 -122 0
-49 -122 0
-49 -124 0
-47 -124 0
-49 -125 0
-46 -125 0
-49 -133 0
-47 -134 0
-47 -135 0
-49 -132 0
-50 -133 0
-47 -133 0
-46 -135 0
-50 -131 0
-50 -132 0
-48 -131 0
-47 -132 0
-46 -133 0
-47 -131 0
-46 -131 0
-50 -135 0
-49 -134 0
-48 -132 0
-48 -169 0
-46 -166 0
-46 -170 0
-46 -167 0
-48 -166 0
-48 -170 0
-47 -170 0
-50 -166 0
-49 -168 0
-50 -170 0
-46 -168 0
-50 -167 0
-49 -169 0
-49 -170 0
-47 -166 0
-47 -169 0
-48 -168 0
-48 -233 0
-46 -231 0
-48 -235 0
-46 -234 0
-50 -231 0
-49 -232 0
-48 -231 0
-47 -234 0
-49 -235 0
-50 -232 0
-46 -233 0
-49 -231 0
-50 -234 0
-50 -235 0
-47 -233 0
-50 -233 0
-49 -234 0
-52 -83 0
-55 -83 0
-54 -81 0
-54 -82 0
-51 -81 0
-52 -82 0
-54 -84 0
-51 -85 0
-55 -85 0
-53 -82 0
-52 -81 0
-51 -82 0
-53 -83 0
-53 -81 0
-53 -84 0
-52 -84 0
-55 -84 0
-54 -94 0
-53 -95 0
-55 -93 0
-52 -93 0
-55 -94 0
-54 -91 0
-55 -95 0
-53 -94 0
-52 -92 0
-52 -94 0
-51 -95 0
-51 -92 0
-54 -95 0
-51 -93 0
-53 -92 0
-52 -91 0
-55 -91 0
-53 -113 0
-54 -112 0
-54 -113 0
-54 -114 0
-55 -112 0
-55 -114 0
-53 -112 0
-55 -113 0
-55 -115 0
-51 -114 0
-52 -114 0
-52 -115 0
-51 -112 0
-51 -111 0
-53 -115 0
-52 -113 0
-51 -113 0
-53 -133 0
-53 -132 0
-55 -132 0
-53 -131 0
-51 -134 0
-52 -131 0
-55 -135 0
-53 -134 0
-51 -131 0
-51 -133 0
-52 -135 0
-55 -133 0
-55 -134 0
-54 -133 0
-51 -132 0
-51 -135 0
-54 -135 0
-54 -185 0
-52 -181 0
-55 -185 0
-54 -182 0
-55 -182 0
-51 -185 0
-54 -183 0
-52 -184 0
-53 -182 0
-51 -183 0
-53 -184 0
-55 -181 0
-53 -183 0
-54 -181 0
-51 -181 0
-53 -181 0
-53 -185 0
-54 -211 0
-53 -214 0
-52 -215 0
-52 -214 0
-54 -212 0
-51 -215 0
-52 -212 0
-52 -211 0
-51 -213 0
-53 -213 0
-55 -214 0
-54 -213 0
-51 -211 0
-51 -214 0
-55 -212 0
-51 -212 0
-54 -214 0
-60 -87 0
-57 -86 0
-60 -90 0
-56 -88 0
-60 -86 0
-60 -88 0
-57 -88 0
-56 -87 0
-58 -89 0
-59 -86 0
-58 -90 0
-57 -89 0
-59 -90 0
-58 -87 0
-59 -88 0
-56 -89 0
-59 -89 0
-59 -115 0
-56 -115 0
-59 -114 0
-57 -113 0
-59 -113 0
-56 -113 0
-58 -114 0
-60 -112 0
-58 -113 0
-56 -112 0
-60 -114 0
-57 -112 0
-56 -114 0
-58 -112 0
-56 -111 0
-58 -115 0
-59 -111 0
-56 -170 0
-59 -166 0
-57 -169 0
-58 -169 0
-57 -168 0
-57 -167 0
-58 -168 0
-60 -169 0
-57 -170 0
-56 -169 0
-58 -166 0
-60 -170 0
-60 -166 0
-57 -166 0
-58 -170 0
-56 -168 0
-60 -168 0
-56 -174 0
-57 -174 0
-59 -173 0
-58 -172 0
-57 -171 0
-58 -171 0
-56 -172 0
-58 -173 0
-56 -173 0
-59 -175 0
-58 -175 0
-60 -175 0
-56 -171 0
-59 -174 0
-58 -174 0
-59 -172 0
-60 -173 0
-60 -243 0
-58 -242 0
-60 -242 0
-58 -245 0
-57 -245 0
-60 -244 0
-58 -244 0
-59 -245 0
-56 -241 0
-57 -242 0
-59 -242 0
-59 -244 0
-56 -244 0
-57 -241 0
-57 -244 0
-58 -241 0
-56 -245 0
-63 -73 0
-62 -72 0
-65 -74 0
-61 -72 0
-64 -71 0
-65 -72 0
-62 -73 0
-64 -74 0
-63 -74 0
-63 -75 0
-64 -73 0
-65 -75 0
-62 -75 0
-64 -75 0
-61 -75 0
-62 -71 0
-65 -71 0
-64 -88 0
-65 -90 0
-63 -89 0
-61 -89 0
-61 -90 0
-62 -89 0
-65 -87 0
-65 -89 0
-64 -89 0
-63 -86 0
-61 -87 0
-64 -86 0
-62 -86 0
-62 -88 0
-61 -86 0
-65 -86 0
-63 -90 0
-62 -150 0
-62 -149 0
-61 -148 0
-65 -150 0
-62 -146 0
-61 -150 0
-63 -147 0
-61 -147 0
-63 -150 0
-64 -150 0
-63 -149 0
-63 -148 0
-62 -148 0
-64 -148 0
-65 -148 0
-64 -149 0
-61 -149 0
-64 -154 0
-61 -151 0
-61 -153 0
-62 -155 0
-62 -154 0
-65 -151 0
-63 -152 0
-63 -155 0
-65 -154 0
-65 -152 0
-62 -153 0
-64 -152 0
-64 -151 0
-61 -154 0
-63 -154 0
-65 -155 0
-63 -151 0
-63 -165 0
-64 -165 0
-65 -165 0
-62 -163 0
-62 -165 0
-61 -161 0
-63 -163 0
-64 -161 0
-61 -165 0
-65 -164 0
-63 -164 0
-62 -161 0
-62 -164 0
-61 -164 0
-63 -161 0
-64 -162 0
-61 -163 0
-68 -151 0
-70 -153 0
-67 -155 0
-69 -154 0
-70 -151 0
-68 -152 0
-66 -153 0
-66 -154 0
-70 -154 0
-69 -155 0
-67 -151 0
-66 -152 0
-69 -152 0
-69 -153 0
-67 -152 0
-68 -155 0
-67 -153 0
-68 -161 0
-66 -162 0
-69 -164 0
-70 -162 0
-67 -161 0
-67 -163 0
-68 -163 0
-68 -162 0
-68 -164 0
-70 -165 0
-70 -163 0
-66 -161 0
-70 -164 0
-69 -163 0
-66 -163 0
-67 -164 0
-66 -164 0
-66 -169 0
-66 -167 0
-67 -166 0
-67 -167 0
-70 -167 0
-69 -166 0
-70 -166 0
-69 -169 0
-68 -166 0
-67 -170 0
-68 -170 0
-68 -167 0
-68 -168 0
-68 -169 0
-66 -170 0
-67 -169 0
-66 -166 0
-70 -223 0
-68 -222 0
-70 -221 0
-69 -222 0
-67 -224 0
-69 -225 0
-69 -223 0
-70 -224 0
-69 -224 0
-66 -221 0
-66 -222 0
-68 -221 0
-67 -221 0
-67 -225 0
-66 -224 0
-67 -222 0
-70 -225 0
-69 -239 0
-66 -237 0
-67 -240 0
-70 -237 0
-67 -238 0
-69 -238 0
-70 -238 0
-66 -240 0
-68 -239 0
-67 -237 0
-69 -240 0
-66 -238 0
-68 -237 0
-68 -240 0
-67 -239 0
-69 -236 0
-70 -240 0
-75 -160 0
-75 -159 0
-71 -160 0
-72 -159 0
-72 -160 0
-74 -159 0
-75 -156 0
-72 -156 0
-75 -158 0
-73 -160 0
-73 -158 0
-71 -157 0
-73 -159 0
-71 -158 0
-72 -157 0
-73 -156 0
-71 -159 0
-74 -170 0
-75 -169 0
-73 -169 0
-73 -170 0
-71 -168 0
-74 -169 0
-72 -167 0
-72 -168 0
-74 -168 0
-71 -166 0
-71 -169 0
-72 -166 0
-72 -170 0
-71 -167 0
-75 -170 0
-75 -167 0
-75 -166 0
-73 -198 0
-74 -196 0
-74 -197 0
-74 -199 0
-71 -196 0
-71 -197 0
-75 -199 0
-74 -198 0
-72 -197 0
-73 -199 0
-72 -198 0
-73 -196 0
-75 -200 0
-71 -198 0
-72 -196 0
-72 -200 0
-75 -198 0
-76 -111 0
-79 -111 0
-80 -115 0
-77 -111 0
-77 -114 0
-77 -113 0
-76 -114 0
-78 -113 0
-79 -115 0
-76 -112 0
-79 -113 0
-78 -114 0
-76 -115 0
-76 -113 0
-77 -112 0
-78 -115 0
-77 -115 0
-77 -169 0
-76 -167 0
-76 -168 0
-80 -168 0
-78 -166 0
-79 -166 0
-79 -168 0
-80 -170 0
-76 -166 0
-77 -166 0
-77 -170 0
-77 -168 0
-78 -168 0
-76 -169 0
-78 -169 0
-79 -169 0
-76 -170 0
-85 -86 0
-85 -89 0
-84 -86 0
-82 -88 0
-82 -90 0
-81 -89 0
-85 -88 0
-84 -90 0
-81 -86 0
-83 -90 0
-84 -87 0
-82 -87 0
-83 -87 0
-84 -89 0
-81 -90 0
-82 -86 0
-81 -87 0
-85 -168 0
-83 -169 0
-83 -170 0
-84 -166 0
-83 -168 0
-84 -169 0
-82 -166 0
-84 -168 0
-85 -169 0
-82 -168 0
-82 -169 0
-83 -166 0
-81 -166 0
-81 -170 0
-84 -170 0
-82 -167 0
-82 -170 0
-85 -195 0
-83 -193 0
-84 -193 0
-85 -194 0
-82 -193 0
-83 -191 0
-85 -193 0
-82 -195 0
-81 -193 0
-85 -191 0
-83 -192 0
-83 -195 0
-83 -194 0
-84 -194 0
-81 -194 0
-84 -192 0
-81 -195 0
-85 -211 0
-84 -213 0
-85 -213 0
-85 -212 0
-84 -212 0
-83 -211 0
-82 -212 0
-85 -214 0
-82 -211 0
-82 -213 0
-81 -215 0
-83 -213 0
-81 -212 0
-84 -211 0
-83 -214 0
-81 -214 0
-84 -215 0
-81 -218 0
-85 -220 0
-81 -220 0
-83 -216 0
-85 -218 0
-85 -217 0
-84 -218 0
-81 -219 0
-85 -216 0
-82 -219 0
-81 -216 0
-82 -220 0
-83 -219 0
-85 -219 0
-84 -217 0
-83 -217 0
-81 -217 0
-81 -243 0
-81 -241 0
-82 -243 0
-83 -242 0
-84 -243 0
-82 -245 0
-85 -242 0
-83 -241 0
-85 -244 0
-85 -241 0
-81 -244 0
-84 -242 0
-83 -245 0
-85 -243 0
-82 -242 0
-81 -245 0
-84 -245 0
-86 -107 0
-89 -107 0
-86 -109 0
-88 -108 0
-87 -108 0
-89 -108 0
-87 -110 0
-90 -108 0
-89 -110 0
-89 -106 0
-88 -110 0
-90 -109 0
-88 -109 0
-86 -110 0
-86 -108 0
-90 -106 0
-90 -110 0
-87 -129 0
-86 -128 0
-86 -129 0
-87 -127 0
-90 -130 0
-86 -130 0
-88 -128 0
-89 -127 0
-90 -127 0
-86 -127 0
-89 -128 0
-90 -126 0
-88 -127 0
-87 -128 0
-89 -126 0
-87 -130 0
-86 -126 0
-86 -143 0
-89 -144 0
-88 -145 0
-86 -142 0
-86 -144 0
-88 -141 0
-88 -142 0
-87 -144 0
-89 -141 0
-89 -142 0
-89 -145 0
-87 -141 0
-90 -141 0
-90 -145 0
-86 -141 0
-90 -144 0
-87 -142 0
-88 -203 0
-89 -201 0
-89 -203 0
-86 -201 0
-89 -204 0
-88 -205 0
-86 -203 0
-90 -205 0
-86 -202 0
-89 -205 0
-88 -201 0
-89 -202 0
-88 -202 0
-87 -202 0
-90 -203 0
-90 -201 0
-88 -204 0
-95 -121 0
-93 -125 0
-94 -125 0
-94 -124 0
-91 -123 0
-93 -122 0
-91 -125 0
-92 -122 0
-91 -124 0
-95 -125 0
-94 -123 0
-91 -121 0
-94 -122 0
-95 -124 0
-95 -122 0
-93 -124 0
-92 -124 0
-91 -182 0
-92 -185 0
-94 -182 0
-91 -184 0
-94 -184 0
-95 -185 0
-95 -182 0
-91 -183 0
-93 -181 0
-93 -185 0
-92 -181 0
-92 -182 0
-93 -184 0
-92 -183 0
-95 -181 0
-95 -183 0
-91 -181 0
-92 -240 0
-93 -239 0
-91 -237 0
-91 -239 0
-92 -239 0
-95 -239 0
-91 -238 0
-95 -237 0
-93 -240 0
-94 -237 0
-93 -237 0
-91 -240 0
-93 -236 0
-92 -236 0
-94 -239 0
-95 -238 0
-94 -236 0
-97 -184 0
-96 -182 0
-99 -181 0
-100 -184 0
-100 -183 0
-98 -184 0
-96 -183 0
-98 -185 0
-97 -182 0
-99 -183 0
-96 -185 0
-99 -185 0
-96 -181 0
-99 -184 0
-99 -182 0
-100 -182 0
-98 -183 0
-103 -165 0
-102 -161 0
-102 -163 0
-102 -164 0
-101 -165 0
-105 -161 0
-103 -161 0
-101 -161 0
-102 -165 0
-101 -163 0
-103 -163 0
-104 -164 0
-102 -162 0
-104 -161 0
-101 -164 0
-103 -162 0
-104 -162 0
-105 -208 0
-104 -209 0
-104 -208 0
-101 -206 0
-104 -206 0
-101 -210 0
-104 -207 0
-102 -207 0
-105 -207 0
-103 -210 0
-101 -209 0
-102 -209 0
-104 -210 0
-105 -209 0
-103 -207 0
-102 -206 0
-101 -207 0
-105 -240 0
-105 -238 0
-102 -238 0
-103 -236 0
-103 -237 0
-105 -237 0
-101 -240 0
-101 -237 0
-103 -239 0
-101 -236 0
-102 -239 0
-104 -236 0
-101 -238 0
-104 -238 0
-105 -236 0
-101 -239 0
-103 -240 0
-108 -123 0
-106 -125 0
-108 -124 0
-107 -125 0
-108 -125 0
-109 -125 0
-107 -124 0
-109 -121 0
-106 -124 0
-107 -122 0
-108 -121 0
-109 -124 0
-110 -124 0
-109 -123 0
-106 -123 0
-107 -121 0
-110 -121 0
-107 -143 0
-107 -141 0
-108 -145 0
-109 -142 0
-108 -141 0
-110 -141 0
-109 -141 0
-106 -145 0
-106 -142 0
-109 -144 0
-107 -142 0
-109 -145 0
-110 -142 0
-107 -144 0
-110 -144 0
-108 -142 0
-108 -144 0
-107 -247 0
-110 -246 0
-108 -246 0
-109 -246 0
-107 -246 0
-106 -246 0
-109 -248 0
-106 -248 0
-110 -247 0
-107 -250 0
-110 -248 0
-108 -248 0
-109 -249 0
-108 -249 0
-109 -247 0
-106 -247 0
-108 -250 0
-113 -129 0
-112 -128 0
-115 -128 0
-114 -128 0
-115 -127 0
-115 -130 0
-112 -127 0
-111 -126 0
-113 -128 0
-114 -126 0
-112 -129 0
-111 -128 0
-111 -130 0
-115 -129 0
-112 -130 0
-112 -126 0
-115 -126 0
-114 -173 0
-114 -171 0
-113 -175 0
-115 -171 0
-111 -174 0
-113 -174 0
-115 -175 0
-111 -175 0
-114 -172 0
-113 -171 0
-111 -172 0
-112 -171 0
-111 -171 0
-114 -175 0
-111 -173 0
-112 -172 0
-115 -174 0
-119 -238 0
-118 -239 0
-117 -237 0
-120 -240 0
-116 -240 0
-119 -240 0
-119 -236 0
-116 -237 0
-120 -239 0
-120 -236 0
-120 -238 0
-119 -239 0
-118 -238 0
-118 -236 0
-120 -237 0
-119 -237 0
-116 -239 0
-122 -153 0
-124 -155 0
-124 -152 0
-124 -153 0
-121 -151 0
-121 -155 0
-121 -153 0
-121 -154 0
-123 -155 0
-124 -154 0
-123 -153 0
-121 -152 0
-124 -151 0
-123 -152 0
-122 -154 0
-125 -151 0
-125 -154 0
-121 -231 0
-125 -232 0
-124 -234 0
-121 -235 0
-124 -235 0
-123 -232 0
-123 -233 0
-123 -234 0
-125 -235 0
-121 -232 0
-125 -233 0
-122 -235 0
-123 -235 0
-122 -233 0
-124 -231 0
-122 -234 0
-121 -234 0
-128 -206 0
-129 -208 0
-127 -210 0
-128 -208 0
-128 -210 0
-127 -208 0
-127 -207 0
-129 -210 0
-130 -206 0
-130 -209 0
-129 -207 0
-130 -208 0
-126 -207 0
-128 -207 0
-129 -209 0
-126 -210 0
-127 -209 0
-126 -233 0
-128 -234 0
-130 -234 0
-128 -231 0
-127 -235 0
-129 -234 0
-128 -233 0
-126 -234 0
-128 -235 0
-127 -234 0
-127 -232 0
-128 -232 0
-129 -231 0
-126 -232 0
-130 -231 0
-130 -235 0
-127 -231 0
-133 -148 0
-133 -146 0
-134 -149 0
-133 -150 0
-134 -146 0
-133 -149 0
-135 -149 0
-133 -147 0
-134 -148 0
-132 -150 0
-135 -148 0
-132 -147 0
-131 -147 0
-131 -149 0
-132 -149 0
-134 -147 0
-131 -146 0
-131 -164 0
-135 -163 0
-134 -162 0
-135 -162 0
-135 -165 0
-133 -161 0
-132 -165 0
-134 -161 0
-134 -164 0
-131 -165 0
-132 -164 0
-133 -163 0
-133 -164 0
-131 -162 0
-132 -163 0
-131 -163 0
-132 -162 0
-135 -225 0
-131 -223 0
-131 -225 0
-135 -221 0
-131 -221 0
-134 -225 0
-132 -221 0
-134 -221 0
-131 -222 0
-134 -224 0
-135 -224 0
-133 -224 0
-133 -223 0
-133 -222 0
-132 -224 0
-133 -225 0
-133 -221 0
-134 -230 0
-132 -228 0
-134 -228 0
-131 -227 0
-133 -230 0
-131 -230 0
-133 -226 0
-135 -230 0
-133 -227 0
-133 -228 0
-135 -228 0
-131 -226 0
-134 -229 0
-133 -229 0
-132 -226 0
-135 -229 0
-132 -229 0
-141 -190 0
-143 -189 0
-142 -190 0
-143 -186 0
-143 -188 0
-145 -186 0
-144 -190 0
-142 -189 0
-141 -188 0
-141 -189 0
-144 -187 0
-141 -187 0
-142 -186 0
-144 -189 0
-144 -188 0
-141 -186 0
-142 -187 0
-151 -223 0
-154 -223 0
-155 -224 0
-152 -222 0
-155 -225 0
-152 -224 0
-151 -222 0
-151 -225 0
-153 -223 0
-154 -221 0
-153 -222 0
-155 -222 0
-152 -223 0
-152 -221 0
-153 -224 0
-155 -221 0
-152 -225 0
-154 -245 0
-151 -243 0
-151 -245 0
-155 -241 0
-155 -242 0
-152 -245 0
-153 -241 0
-155 -244 0
-154 -242 0
-154 -244 0
-154 -243 0
-152 -244 0
-153 -242 0
-151 -244 0
-155 -243 0
-153 -244 0
-153 -243 0
-162 -168 0
-165 -169 0
-164 -169 0
-164 -166 0
-162 -169 0
-162 -167 0
-165 -168 0
-161 -168 0
-161 -169 0
-161 -170 0
-164 -170 0
-163 -169 0
-162 -166 0
-165 -170 0
-165 -167 0
-164 -167 0
-162 -170 0
-165 -240 0
-164 -237 0
-163 -239 0
-162 -236 0
-161 -238 0
-162 -240 0
-161 -239 0
-165 -239 0
-161 -237 0
-164 -240 0
-163 -240 0
-163 -237 0
-164 -239 0
-165 -237 0
-165 -238 0
-165 -236 0
-162 -239 0
-170 -184 0
-169 -182 0
-168 -182 0
-170 -181 0
-167 -185 0
-170 -182 0
-166 -185 0
-167 -184 0
-167 -182 0
-170 -185 0
-168 -181 0
-166 -184 0
-168 -184 0
-166 -181 0
-170 -183 0
-169 -181 0
-168 -183 0
-169 -193 0
-166 -193 0
-166 -192 0
-167 -192 0
-170 -194 0
-170 -191 0
-168 -191 0
-168 -194 0
-166 -194 0
-167 -191 0
-167 -194 0
-169 -194 0
-169 -192 0
-168 -193 0
-166 -191 0
-168 -192 0
-166 -195 0
-168 -197 0
-169 -196 0
-166 -199 0
-169 -200 0
-168 -196 0
-167 -198 0
-169 -199 0
-170 -198 0
-168 -198 0
-170 -197 0
-170 -199 0
-167 -200 0
-170 -196 0
-168 -200 0
-166 -197 0
-166 -200 0
-166 -196 0
-174 -228 0
-174 -227 0
-172 -230 0
-175 -226 0
-171 -230 0
-171 -228 0
-173 -229 0
-174 -230 0
-173 -230 0
-175 -227 0
-171 -226 0
-171 -229 0
-173 -226 0
-172 -227 0
-171 -227 0
-175 -228 0
-173 -227 0
-176 -222 0
-177 -225 0
-180 -224 0
-178 -223 0
-176 -221 0
-178 -221 0
-179 -223 0
-179 -222 0
-177 -223 0
-180 -223 0
-176 -224 0
-178 -224 0
-177 -221 0
-178 -225 0
-180 -225 0
-177 -224 0
-176 -223 0
-177 -232 0
-176 -233 0
-180 -232 0
-178 -233 0
-179 -234 0
-177 -231 0
-178 -231 0
-178 -232 0
-180 -231 0
-177 -235 0
-176 -231 0
-177 -234 0
-180 -234 0
-177 -233 0
-179 -235 0
-180 -233 0
-179 -232 0
-183 -200 0
-185 -200 0
-181 -199 0
-182 -199 0
-184 -196 0
-185 -197 0
-184 -200 0
-181 -198 0
-182 -200 0
-183 -199 0
-183 -198 0
-185 -199 0
-183 -197 0
-185 -196 0
-182 -197 0
-184 -199 0
-182 -198 0
-184 -248 0
-184 -246 0
-183 -248 0
-182 -247 0
-183 -250 0
-184 -250 0
-181 -249 0
-182 -250 0
-185 -250 0
-181 -250 0
-181 -247 0
-181 -248 0
-181 -246 0
-185 -249 0
-184 -249 0
-182 -249 0
-184 -247 0
-190 -229 0
-186 -230 0
-189 -230 0
-190 -227 0
-187 -227 0
-187 -230 0
-186 -229 0
-190 -228 0
-188 -230 0
-187 -229 0
-187 -226 0
-187 -228 0
-188 -227 0
-186 -228 0
-190 -230 0
-188 -228 0
-189 -226 0
-186 -238 0
-190 -237 0
-190 -239 0
-187 -238 0
-188 -237 0
-187 -239 0
-188 -236 0
-189 -239 0
-186 -237 0
-190 -236 0
-186 -236 0
-190 -240 0
-190 -238 0
-189 -236 0
-186 -240 0
-187 -240 0
-188 -240 0
-200 -230 0
-196 -230 0
-198 -229 0
-197 -226 0
-199 -226 0
-200 -228 0
-196 -228 0
-197 -229 0
-197 -230 0
-197 -227 0
-196 -227 0
-200 -226 0
-198 -226 0
-196 -229 0
-198 -228 0
-199 -230 0
-196 -226 0
-205 -216 0
-204 -218 0
-204 -219 0
-202 -219 0
-204 -220 0
-201 -216 0
-205 -219 0
-205 -220 0
-202 -220 0
-204 -217 0
-203 -220 0
-201 -218 0
-201 -217 0
-203 -216 0
-202 -218 0
-201 -219 0
-203 -218 0
-208 -223 0
-206 -222 0
-210 -225 0
-208 -222 0
-210 -223 0
-210 -224 0
-209 -222 0
-209 -225 0
-210 -221 0
-206 -225 0
-208 -221 0
-206 -223 0
-209 -221 0
-206 -221 0
-208 -225 0
-207 -225 0
-209 -224 0
-209 -234 0
-210 -232 0
-210 -234 0
-208 -234 0
-206 -232 0
-207 -234 0
-206 -234 0
-207 -231 0
-208 -232 0
-210 -233 0
-210 -235 0
-208 -235 0
-206 -231 0
-209 -232 0
-210 -231 0
-207 -235 0
-207 -233 0
-216 -221 0
-220 -221 0
-217 -222 0
-219 -221 0
-218 -223 0
-218 -224 0
-219 -225 0
-218 -222 0
-217 -225 0
-216 -225 0
-217 -224 0
-220 -223 0
-217 -221 0
-219 -222 0
-217 -223 0
-219 -223 0
-220 -222 0
-219 -231 0
-218 -231 0
-217 -231 0
-217 -232 0
-220 -233 0
-217 -233 0
-219 -233 0
-218 -233 0
-216 -235 0
-216 -234 0
-216 -233 0
-219 -234 0
-216 -231 0
-217 -235 0
-220 -235 0
-218 -234 0
-219 -235 0
-235 -242 0
-233 -243 0
-231 -244 0
-234 -241 0
-233 -244 0
-233 -241 0
-234 -245 0
-231 -245 0
-231 -241 0
-235 -241 0
-234 -243 0
-233 -242 0
-232 -244 0
-235 -244 0
-235 -245 0
-233 -245 0
-231 -242 0
